Maximize
  obj: 20 x1 + 22 x2 + 19 x3 + 13 x4 + 27 x5 + 17 x6 + 33 x7 + 26 x8 + 21 x9 + 30 x10
Subject To
  c1: 6 x1 + 7 x2 + 4 x3 + 3 x4 + 6 x5 + 5 x6 + 8 x7 + 7 x8 + 6 x9 + 9 x10 <= 26
Bounds
  0 <= x1 <= 1
  0 <= x2 <= 1
  0 <= x3 <= 1
  0 <= x4 <= 1
  0 <= x5 <= 1
  0 <= x6 <= 1
  0 <= x7 <= 1
  0 <= x8 <= 1
  0 <= x9 <= 1
  0 <= x10 <= 1
Binary
  x1 x2 x3 x4 x5 x6 x7 x8 x9 x10
End
